
Log started (V11.0.0) Sun Apr 13 14:00:25 2008

Tried aggregator 1 time.
Reduced MIP has 230 rows, 6001 columns, and 12030 nonzeros.
Presolve time =    0.03 sec.
Clique table members: 200.
MIP emphasis: balance optimality and feasibility.
MIP search method: dynamic search.
Parallel mode: none, using 1 thread.
Root relaxation solution time =    0.13 sec.

        Nodes                                         Cuts/
   Node  Left     Objective  IInf  Best Integer     Best Node    ItCnt     Gap

*     0+    0                        10315.0000       22.4359      653   99.78%
*     0+    0                           32.0000       22.4359      653   29.89%
      0     0       23.0000    46       32.0000      Fract: 6      662   28.12%
*     0+    0                           30.0000       23.0000      662   23.33%
*     0+    0                           26.0000       23.0000      662   11.54%

Repeating presolve.
Tried aggregator 1 time.
MIP Presolve eliminated 0 rows and 4451 columns.
Aggregator did 1 substitutions.
Reduced MIP has 229 rows, 1549 columns, and 3126 nonzeros.
Tried aggregator 1 time.
Represolve time =    0.06 sec.
Clique table members: 562.
MIP emphasis: balance optimality and feasibility.
MIP search method: dynamic search.
Parallel mode: none, using 1 thread.
Root relaxation solution time =    0.05 sec.

        Nodes                                         Cuts/
   Node  Left     Objective  IInf  Best Integer     Best Node    ItCnt     Gap

      0     0       23.0000    58       26.0000       23.0000      369   11.54%
*     0+    0                           25.0000       23.0000      369    8.00%
      0     2       23.0000    58       25.0000       23.0000      369    8.00%
    100    77       23.3281   155       25.0000       23.0000     8650    8.00%
*   180+   26                           24.0000       23.0000    12961    4.17%
    200     5    infeasible             24.0000       23.0000    31593    4.17%

Cover cuts applied:  314
Gomory fractional cuts applied:  2

Solution pool: 6 solutions saved.

MIP - Integer optimal solution:  Objective = 2.4000000000e+001
Solution time =    8.78 sec.  Iterations = 35917  Nodes = 206


Incumbent solution
Variable Name           Solution Value
Cmax                         24.000000
X_1_16                        1.000000
X_2_17                        1.000000
X_3_6                         1.000000
X_4_9                         1.000000
X_5_18                        1.000000
X_6_22                        1.000000
X_7_14                        1.000000
X_8_26                        1.000000
X_9_22                        1.000000
X_10_2                        1.000000
X_11_22                       1.000000
X_12_30                       1.000000
X_13_16                       1.000000
X_14_24                       1.000000
X_15_5                        1.000000
X_16_10                       1.000000
X_17_18                       1.000000
X_18_6                        1.000000
X_19_29                       1.000000
X_20_2                        1.000000
X_21_23                       1.000000
X_22_13                       1.000000
X_23_28                       1.000000
X_24_11                       1.000000
X_25_7                        1.000000
X_26_19                       1.000000
X_27_25                       1.000000
X_28_11                       1.000000
X_29_9                        1.000000
X_30_3                        1.000000
X_31_18                       1.000000
X_32_15                       1.000000
X_33_3                        1.000000
X_34_30                       1.000000
X_35_24                       1.000000
X_36_12                       1.000000
X_37_20                       1.000000
X_38_11                       1.000000
X_39_9                        1.000000
X_40_1                        1.000000
X_41_1                        1.000000
X_42_25                       1.000000
X_43_19                       1.000000
X_44_1                        1.000000
X_45_30                       1.000000
X_46_18                       1.000000
X_47_9                        1.000000
X_48_14                       1.000000
X_49_13                       1.000000
X_50_16                       1.000000
X_51_13                       1.000000
X_52_8                        1.000000
X_53_22                       1.000000
X_54_22                       1.000000
X_55_2                        1.000000
X_56_7                        1.000000
X_57_27                       1.000000
X_58_8                        1.000000
X_59_23                       1.000000
X_60_9                        1.000000
X_61_4                        1.000000
X_62_5                        1.000000
X_63_25                       1.000000
X_64_10                       1.000000
X_65_15                       1.000000
X_66_6                        1.000000
X_67_13                       1.000000
X_68_4                        1.000000
X_69_30                       1.000000
X_70_27                       1.000000
X_71_8                        1.000000
X_72_2                        1.000000
X_73_19                       1.000000
X_74_29                       1.000000
X_75_28                       1.000000
X_76_4                        1.000000
X_77_3                        1.000000
X_78_9                        1.000000
X_79_29                       1.000000
X_80_12                       1.000000
X_81_21                       1.000000
X_82_11                       1.000000
X_83_11                       1.000000
X_84_1                        1.000000
X_85_15                       1.000000
X_86_4                        1.000000
X_87_5                        1.000000
X_88_12                       1.000000
X_89_29                       1.000000
X_90_13                       1.000000
X_91_30                       1.000000
X_92_15                       1.000000
X_93_17                       1.000000
X_94_22                       1.000000
X_95_22                       1.000000
X_96_10                       1.000000
X_97_13                       1.000000
X_98_24                       1.000000
X_99_4                        1.000000
X_100_12                      1.000000
X_101_25                      1.000000
X_102_26                      1.000000
X_103_7                       1.000000
X_104_20                      1.000000
X_105_24                      1.000000
X_106_1                       1.000000
X_107_17                      1.000000
X_108_23                      1.000000
X_109_26                      1.000000
X_110_28                      1.000000
X_111_14                      1.000000
X_112_13                      1.000000
X_113_26                      1.000000
X_114_12                      1.000000
X_115_12                      1.000000
X_116_28                      1.000000
X_117_14                      1.000000
X_118_2                       1.000000
X_119_6                       1.000000
X_120_8                       1.000000
X_121_10                      1.000000
X_122_10                      1.000000
X_123_29                      1.000000
X_124_20                      1.000000
X_125_16                      1.000000
X_126_19                      1.000000
X_127_21                      1.000000
X_128_17                      1.000000
X_129_19                      1.000000
X_130_6                       1.000000
X_131_5                       1.000000
X_132_6                       1.000000
X_133_5                       1.000000
X_134_22                      1.000000
X_135_3                       1.000000
X_136_3                       1.000000
X_137_3                       1.000000
X_138_26                      1.000000
X_139_12                      1.000000
X_140_2                       1.000000
X_141_26                      1.000000
X_142_2                       1.000000
X_143_26                      1.000000
X_144_18                      1.000000
X_145_3                       1.000000
X_146_20                      1.000000
X_147_23                      1.000000
X_148_11                      1.000000
X_149_8                       1.000000
X_150_7                       1.000000
X_151_25                      1.000000
X_152_14                      1.000000
X_153_28                      1.000000
X_154_4                       1.000000
X_155_28                      1.000000
X_156_29                      1.000000
X_157_23                      1.000000
X_158_24                      1.000000
X_159_7                       1.000000
X_160_24                      1.000000
X_161_15                      1.000000
X_162_15                      1.000000
X_163_23                      1.000000
X_164_23                      1.000000
X_165_15                      1.000000
X_166_18                      1.000000
X_167_27                      1.000000
X_168_6                       1.000000
X_169_16                      1.000000
X_170_11                      1.000000
X_171_24                      1.000000
X_172_18                      1.000000
X_173_19                      1.000000
X_174_27                      1.000000
X_175_23                      1.000000
X_176_16                      1.000000
X_177_2                       1.000000
X_178_9                       1.000000
X_179_5                       1.000000
X_180_12                      1.000000
X_181_25                      1.000000
X_182_5                       1.000000
X_183_4                       1.000000
X_184_28                      1.000000
X_185_16                      1.000000
X_186_28                      1.000000
X_187_22                      1.000000
X_188_29                      1.000000
X_189_1                       1.000000
X_190_30                      1.000000
X_191_5                       1.000000
X_192_12                      1.000000
X_193_27                      1.000000
X_194_22                      1.000000
X_195_20                      1.000000
X_196_20                      1.000000
X_197_15                      1.000000
X_198_24                      1.000000
X_199_19                      1.000000
X_200_24                      1.000000
All other variables in the range 1-6001 are 0.
